(declare-fun _for_it_23 () Int)
(declare-fun _for_it_78 () Int)
(declare-fun kfdia () Int)
(declare-fun kidia () Int)
(declare-fun klev () Int)
(declare-fun ncldtop () Int)

(assert (forall ((_if_cond_76_val (Array Int Int)) (jo_val (Array Int Int)))
  (and
    (forall ((_for_it_79_0 Int) (_for_it_79_1 Int))
      (or
        (not (= _for_it_79_0 _for_it_79_1))
        (not (<= _for_it_79_1 (+ kfdia (- 1))))
        (not (<= (+ kidia (- 1)) _for_it_79_1))
        (not (<= _for_it_79_0 (+ kfdia (- 1))))
        (not (<= (+ kidia (- 1)) _for_it_79_0))
      )
    )
    (forall ((_for_it_79_0 Int) (_for_it_80_1 Int) (_for_it_81_1 Int))
      (or
        (not (<= _for_it_81_1 (+ kfdia (- 1))))
        (not (<= (+ kidia (- 1)) _for_it_81_1))
        (not (= _for_it_79_0 (- (+ _for_it_81_1 1) 1)))
        (not (<= 0 _for_it_80_1))
        (not (<= _for_it_80_1 4))
        (not (<= _for_it_79_0 (+ kfdia (- 1))))
        (not (<= (+ kidia (- 1)) _for_it_79_0))
      )
    )
    (forall ((_for_it_80_0 Int) (_for_it_80_1 Int) (_for_it_81_0 Int) (_for_it_81_1 Int))
      (or
        (not (= (select _if_cond_76_val (- (+ (* _for_it_80_0 (- kfdia kidia)) _for_it_81_0 (* _for_it_78 (- (* kfdia 4) (* kidia 4))) (* (- (+ _for_it_23 1) ncldtop) (- (* kfdia 16) (* kidia 16))) 1) kidia)) 1))
        (not (= _for_it_81_0 _for_it_81_1))
        (not (<= _for_it_81_1 (+ kfdia (- 1))))
        (not (<= (+ kidia (- 1)) _for_it_81_1))
        (not (<= _for_it_81_0 (+ kfdia (- 1))))
        (not (<= (+ kidia (- 1)) _for_it_81_0))
        (not (<= 0 _for_it_80_1))
        (not (<= 0 _for_it_80_0))
        (not (<= _for_it_80_0 4))
        (not (<= _for_it_80_1 4))
        (not (= (select _if_cond_76_val (- (+ (* _for_it_80_1 (- kfdia kidia)) _for_it_81_1 (* (+ _for_it_78 1) (- (* kfdia 4) (* kidia 4))) (* (- (+ _for_it_23 1) ncldtop) (- (* kfdia 16) (* kidia 16))) 1) kidia)) 1))
      )
    )
    (forall ((_for_it_80_0 Int) (_for_it_80_1 Int) (_for_it_81_0 Int) (_for_it_81_1 Int))
      (or
        (not (= (select _if_cond_76_val (- (+ (* _for_it_80_0 (- kfdia kidia)) _for_it_81_0 (* _for_it_78 (- (* kfdia 4) (* kidia 4))) (* (- (+ _for_it_23 1) ncldtop) (- (* kfdia 16) (* kidia 16))) 1) kidia)) 1))
        (not (<= _for_it_81_1 (+ kfdia (- 1))))
        (not (<= (+ kidia (- 1)) _for_it_81_1))
        (not (<= _for_it_81_0 (+ kfdia (- 1))))
        (not (<= (+ kidia (- 1)) _for_it_81_0))
        (not (= _for_it_81_0 (- (+ _for_it_81_1 1) 1)))
        (not (<= 0 _for_it_80_1))
        (not (<= 0 _for_it_80_0))
        (not (<= _for_it_80_0 4))
        (not (<= _for_it_80_1 4))
      )
    )
    (forall ((_for_it_79_1 Int) (_for_it_80_0 Int) (_for_it_81_0 Int))
      (or
        (not (= (select _if_cond_76_val (- (+ (* _for_it_80_0 (- kfdia kidia)) _for_it_81_0 (* _for_it_78 (- (* kfdia 4) (* kidia 4))) (* (- (+ _for_it_23 1) ncldtop) (- (* kfdia 16) (* kidia 16))) 1) kidia)) 1))
        (not (= _for_it_81_0 _for_it_79_1))
        (not (<= _for_it_81_0 (+ kfdia (- 1))))
        (not (<= (+ kidia (- 1)) _for_it_81_0))
        (not (<= 0 _for_it_80_0))
        (not (<= _for_it_80_0 4))
        (not (<= (+ kidia (- 1)) _for_it_79_1))
        (not (<= _for_it_79_1 (+ kfdia (- 1))))
      )
    )
    (forall ((_for_it_80_0 Int) (_for_it_81_0 Int) (_for_it_82_1 Int))
      (or
        (not (<= _for_it_82_1 (+ kfdia (- 1))))
        (not (<= (+ kidia (- 1)) _for_it_82_1))
        (not (= (select _if_cond_76_val (- (+ (* _for_it_80_0 (- kfdia kidia)) _for_it_81_0 (* _for_it_78 (- (* kfdia 4) (* kidia 4))) (* (- (+ _for_it_23 1) ncldtop) (- (* kfdia 16) (* kidia 16))) 1) kidia)) 1))
        (not (= _for_it_81_0 (- (+ _for_it_82_1 1) 1)))
        (not (<= _for_it_81_0 (+ kfdia (- 1))))
        (not (<= (+ kidia (- 1)) _for_it_81_0))
        (not (= _for_it_78 (- (+ _for_it_78 2) 1)))
        (not (<= 0 _for_it_80_0))
        (not (<= _for_it_80_0 4))
      )
    )
    (forall ((_for_it_82_0 Int) (_for_it_82_1 Int))
      (or
        (not (<= _for_it_82_1 (+ kfdia (- 1))))
        (not (<= (+ kidia (- 1)) _for_it_82_1))
        (not (= (+ (select jo_val (- (+ (* _for_it_78 (- kfdia kidia)) _for_it_82_0 (* (- (+ _for_it_23 1) ncldtop) (- (* kfdia 4) (* kidia 4))) 1) kidia)) (- 1)) (+ (select jo_val (- (+ (* (+ _for_it_78 1) (- kfdia kidia)) _for_it_82_1 (* (- (+ _for_it_23 1) ncldtop) (- (* kfdia 4) (* kidia 4))) 1) kidia)) (- 1))))
        (not (= _for_it_82_0 _for_it_82_1))
        (not (<= _for_it_82_0 (+ kfdia (- 1))))
        (not (<= (+ kidia (- 1)) _for_it_82_0))
      )
    )
    (forall ((_for_it_80_0 Int) (_for_it_80_1 Int) (_for_it_81_0 Int) (_for_it_81_1 Int))
      (or
        (not (= _for_it_81_0 _for_it_81_1))
        (not (= _for_it_78 (+ _for_it_78 1)))
        (not (<= _for_it_81_1 (+ kfdia (- 1))))
        (not (<= (+ kidia (- 1)) _for_it_81_1))
        (not (= (select _if_cond_76_val (- (+ (* _for_it_80_0 (- kfdia kidia)) _for_it_81_0 (* _for_it_78 (- (* kfdia 4) (* kidia 4))) (* (- (+ _for_it_23 1) ncldtop) (- (* kfdia 16) (* kidia 16))) 1) kidia)) 1))
        (not (<= _for_it_81_0 (+ kfdia (- 1))))
        (not (<= (+ kidia (- 1)) _for_it_81_0))
        (not (<= 0 _for_it_80_1))
        (not (<= 0 _for_it_80_0))
        (not (<= _for_it_80_0 4))
        (not (<= _for_it_80_1 4))
        (not (= (select _if_cond_76_val (- (+ (* _for_it_80_1 (- kfdia kidia)) _for_it_81_1 (* (+ _for_it_78 1) (- (* kfdia 4) (* kidia 4))) (* (- (+ _for_it_23 1) ncldtop) (- (* kfdia 16) (* kidia 16))) 1) kidia)) 1))
      )
    )
    (forall ((_for_it_80_1 Int) (_for_it_81_1 Int) (_for_it_82_0 Int))
      (or
        (not (<= _for_it_81_1 (+ kfdia (- 1))))
        (not (<= (+ kidia (- 1)) _for_it_81_1))
        (not (= _for_it_82_0 (- (+ _for_it_81_1 1) 1)))
        (not (<= _for_it_82_0 (+ kfdia (- 1))))
        (not (= (+ (select jo_val (- (+ (* _for_it_78 (- kfdia kidia)) _for_it_82_0 (* (- (+ _for_it_23 1) ncldtop) (- (* kfdia 4) (* kidia 4))) 1) kidia)) (- 1)) (- (+ _for_it_80_1 1) 1)))
        (not (<= (+ kidia (- 1)) _for_it_82_0))
        (not (<= 0 _for_it_80_1))
        (not (<= _for_it_80_1 4))
      )
    )
    (forall ((_for_it_80_0 Int) (_for_it_81_0 Int) (_for_it_82_1 Int))
      (or
        (not (<= _for_it_82_1 (+ kfdia (- 1))))
        (not (<= (+ kidia (- 1)) _for_it_82_1))
        (not (= (- (+ _for_it_80_0 1) 1) (+ (select jo_val (- (+ (* (+ _for_it_78 1) (- kfdia kidia)) _for_it_82_1 (* (- (+ _for_it_23 1) ncldtop) (- (* kfdia 4) (* kidia 4))) 1) kidia)) (- 1))))
        (not (<= _for_it_81_0 (+ kfdia (- 1))))
        (not (<= (+ kidia (- 1)) _for_it_81_0))
        (not (<= 0 _for_it_80_0))
        (not (<= _for_it_80_0 4))
        (not (= (- (+ _for_it_81_0 1) 1) _for_it_82_1))
      )
    )
    (forall ((_for_it_80_0 Int) (_for_it_80_1 Int) (_for_it_81_0 Int) (_for_it_81_1 Int))
      (or
        (not (<= _for_it_81_1 (+ kfdia (- 1))))
        (not (<= (+ kidia (- 1)) _for_it_81_1))
        (not (= (- (+ _for_it_81_0 1) 1) _for_it_81_1))
        (not (<= _for_it_81_0 (+ kfdia (- 1))))
        (not (<= (+ kidia (- 1)) _for_it_81_0))
        (not (<= 0 _for_it_80_1))
        (not (<= 0 _for_it_80_0))
        (not (<= _for_it_80_0 4))
        (not (<= _for_it_80_1 4))
        (not (= (select _if_cond_76_val (- (+ (* _for_it_80_1 (- kfdia kidia)) _for_it_81_1 (* (+ _for_it_78 1) (- (* kfdia 4) (* kidia 4))) (* (- (+ _for_it_23 1) ncldtop) (- (* kfdia 16) (* kidia 16))) 1) kidia)) 1))
      )
    )
    (forall ((_for_it_82_0 Int) (_for_it_82_1 Int))
      (or
        (not (<= _for_it_82_1 (+ kfdia (- 1))))
        (not (<= (+ kidia (- 1)) _for_it_82_1))
        (not (<= _for_it_82_0 (+ kfdia (- 1))))
        (not (<= (+ kidia (- 1)) _for_it_82_0))
        (not (= (- (+ (* _for_it_78 (- kfdia kidia)) _for_it_82_0 (* (- (+ _for_it_23 1) ncldtop) (- (* kfdia 4) (* kidia 4))) 1) kidia) (- (+ (* (+ _for_it_78 1) (- kfdia kidia)) _for_it_82_1 (* (- (+ _for_it_23 1) ncldtop) (- (* kfdia 4) (* kidia 4))) 1) kidia)))
      )
    )
    (forall ((_for_it_80_0 Int) (_for_it_80_1 Int) (_for_it_81_0 Int) (_for_it_81_1 Int))
      (or
        (not (<= _for_it_81_1 (+ kfdia (- 1))))
        (not (<= (+ kidia (- 1)) _for_it_81_1))
        (not (<= _for_it_81_0 (+ kfdia (- 1))))
        (not (<= (+ kidia (- 1)) _for_it_81_0))
        (not (<= 0 _for_it_80_1))
        (not (= (- (+ (* _for_it_80_0 (- kfdia kidia)) _for_it_81_0 (* _for_it_78 (- (* kfdia 4) (* kidia 4))) (* (- (+ _for_it_23 1) ncldtop) (- (* kfdia 16) (* kidia 16))) 1) kidia) (- (+ (* _for_it_80_1 (- kfdia kidia)) _for_it_81_1 (* (+ _for_it_78 1) (- (* kfdia 4) (* kidia 4))) (* (- (+ _for_it_23 1) ncldtop) (- (* kfdia 16) (* kidia 16))) 1) kidia)))
        (not (<= 0 _for_it_80_0))
        (not (<= _for_it_80_1 4))
        (not (<= _for_it_80_0 4))
      )
    )
    (forall ((_for_it_79_1 Int) (_for_it_80_0 Int) (_for_it_81_0 Int))
      (or
        (not (= (- (+ _for_it_81_0 1) 1) _for_it_79_1))
        (not (<= _for_it_81_0 (+ kfdia (- 1))))
        (not (<= (+ kidia (- 1)) _for_it_81_0))
        (not (<= 0 _for_it_80_0))
        (not (<= _for_it_80_0 4))
        (not (<= (+ kidia (- 1)) _for_it_79_1))
        (not (<= _for_it_79_1 (+ kfdia (- 1))))
      )
    )
    (forall ((_for_it_79_0 Int) (_for_it_80_1 Int) (_for_it_81_1 Int))
      (or
        (not (<= _for_it_81_1 (+ kfdia (- 1))))
        (not (<= (+ kidia (- 1)) _for_it_81_1))
        (not (= _for_it_79_0 _for_it_81_1))
        (not (<= 0 _for_it_80_1))
        (not (<= _for_it_80_1 4))
        (not (= (select _if_cond_76_val (- (+ (* _for_it_80_1 (- kfdia kidia)) _for_it_81_1 (* (+ _for_it_78 1) (- (* kfdia 4) (* kidia 4))) (* (- (+ _for_it_23 1) ncldtop) (- (* kfdia 16) (* kidia 16))) 1) kidia)) 1))
        (not (<= _for_it_79_0 (+ kfdia (- 1))))
        (not (<= (+ kidia (- 1)) _for_it_79_0))
      )
    )
    (and
      (<= (+ _for_it_78 1) 4)
      (<= ncldtop (+ klev (- 1)))
      (<= kidia (+ kfdia (- 1)))
      (<= 0 _for_it_78)
    )
    (forall ((_for_it_80_1 Int) (_for_it_81_1 Int) (_for_it_82_0 Int))
      (or
        (not (= (- (+ _for_it_82_0 1) 1) _for_it_81_1))
        (not (= (- (+ _for_it_78 1) 1) (+ _for_it_78 1)))
        (not (<= _for_it_81_1 (+ kfdia (- 1))))
        (not (<= (+ kidia (- 1)) _for_it_81_1))
        (not (<= _for_it_82_0 (+ kfdia (- 1))))
        (not (<= (+ kidia (- 1)) _for_it_82_0))
        (not (<= 0 _for_it_80_1))
        (not (<= _for_it_80_1 4))
        (not (= (select _if_cond_76_val (- (+ (* _for_it_80_1 (- kfdia kidia)) _for_it_81_1 (* (+ _for_it_78 1) (- (* kfdia 4) (* kidia 4))) (* (- (+ _for_it_23 1) ncldtop) (- (* kfdia 16) (* kidia 16))) 1) kidia)) 1))
      )
    )
  )
))

(check-sat)